W=5;
H=7;

MAX_TIME=15;
MAX_TRACKS=12;

TARGET=(1,5);

TRAINS=[(5,5,LEFT),(7,5,LEFT),(3,3,LEFT)];
DECOYS=[];

INIT_POS=[
(1,4,STRAIGHT_RL),
(1,5,STRAIGHT_RL),
(2,1,ROCK),
(2,2,STRAIGHT_TD),
(3,1,ROCK),
(3,3,STRAIGHT_RL),
(4,1,ROCK),
(4,2,ROCK),
(4,3,ROCK),
(5,5,STRAIGHT_RL),
(7,5,STRAIGHT_RL),
];
TUNNEL_PAIRS=[
  (1, 1, RIGHT, 6, 1, RIGHT),
];

GATES=[];
ACTIVATIONS=[];

DSWITCHES=[];

STATIONS=[];
